32      4       
15      13      16      16      
0       0       0       0       0       3       2       3       4       
8       0       0       10      6       3       5       7       11      
2       3       0       0       5       3       6       8       12      
6       10      6       0       0       3       9       10      16      
6       8       0       7       0       1       19      
9       0       0       2       0       1       18      
1       0       0       2       0       1       17      
9       0       0       7       2       2       13      28      
9       0       0       0       10      1       29      
8       8       1       0       0       2       18      26      
4       5       0       8       0       2       15      17      
1       1       8       10      0       1       20      
6       7       9       0       10      2       14      31      
1       1       5       0       0       2       15      16      
2       8       5       3       0       2       20      24      
1       0       0       6       2       1       20      
1       0       4       0       5       1       27      
1       1       1       0       0       1       24      
4       0       4       4       10      1       22      
1       9       2       0       6       1       21      
1       0       4       3       0       1       23      
10      9       0       0       0       3       24      25      27      
9       6       0       0       3       2       29      30      
4       2       6       0       8       1       29      
5       0       0       0       1       1       26      
10      0       0       1       8       1       31      
1       9       10      9       0       1       30      
2       0       5       0       0       1       31      
4       10      5       1       8       1       32      
1       0       8       0       0       1       32      
10      0       9       0       0       1       32      
0       0       0       0       0       0       